NAME : gasolina
COMMENT : 48 capitals of the US (Padberg/Rinaldi)
TYPE : TSP
DIMENSION : 48
EDGE_WEIGHT_TYPE : ATT
NODE_COORD_SECTION
1	93	30
2	16	73
3	7	50
4	9	91
5	16	37
6	29	9
7	76	29
8	18	85
9	3	39
10	65	78
11	86	63
12	98	100
13	55	16
14	67	60
15	5	24
16	10	63
17	25	32
18	92	74
19	66	16
20	3	55
21	4	1
22	36	23
23	25	97
24	69	63
25	99	75
26	86	100
27	12	98
28	77	24
29	51	94
30	68	75
31	52	99
32	19	89
33	97	57
34	15	72
35	74	90
36	66	91
37	29	11
38	39	54
39	14	67
40	41	42
41	90	57
42	51	94
43	22	78
44	100	17
45	100	17
46	55	48
47	2	8
48	76	66

EOF